2025-10-21 23:49:15,354 - INFO - 📌 第一个 epoch：默认所有模块使用 checkpoint
2025-10-21 23:49:40,950 - INFO - Epoch 1 completed in 25.638326 seconds
2025-10-21 23:55:10,086 - INFO - torch.cuda.max_memory_reserved() : 0.919921875
2025-10-21 23:55:35,283 - INFO - 
[🔁 拟合反向传播时间模型]
2025-10-21 23:55:35,284 - INFO - 总反向传播时间: 24.845549s
2025-10-21 23:55:35,284 - INFO - 拟合模型: backward_total ≈ 2 × (A + B) + b
2025-10-21 23:55:35,284 - INFO - A = 13.648585, B = 1.207137, b = 9.989828s
2025-10-21 23:55:35,347 - INFO - Set parameter LicenseID to value 2706656
2025-10-21 23:55:35,406 - INFO - Set parameter LogToConsole to value 1
2025-10-21 23:55:35,406 - INFO - Set parameter LogFile to value ""
2025-10-21 23:55:35,406 - INFO - Set parameter Threads to value 12
2025-10-21 23:55:35,406 - INFO - Set parameter TimeLimit to value 3600
2025-10-21 23:55:35,407 - INFO - Set parameter OptimalityTol to value 0.0001
2025-10-21 23:55:35,407 - INFO - Set parameter IntFeasTol to value 1e-05
2025-10-21 23:55:35,407 - INFO - Set parameter StartNodeLimit to value 10000000
2025-10-21 23:55:35,524 - INFO - Set parameter TimeLimit to value 3600
2025-10-21 23:55:35,525 - INFO - 
2025-10-21 23:55:35,525 - INFO - 
2025-10-21 23:55:35,525 - INFO - Restarting solve
2025-10-21 23:55:35,525 - INFO - 
2025-10-21 23:55:35,525 - INFO - 
2025-10-21 23:55:35,541 - INFO - Gurobi Optimizer version 12.0.3 build v12.0.3rc0 (linux64 - "Ubuntu 20.04.6 LTS")
2025-10-21 23:55:35,541 - INFO - 
2025-10-21 23:55:35,542 - INFO - CPU model: Intel(R) Xeon(R) Platinum 8260 CPU @ 2.40GHz, instruction set [SSE2|AVX|AVX2|AVX512]
2025-10-21 23:55:35,542 - INFO - Thread count: 48 physical cores, 96 logical processors, using up to 12 threads
2025-10-21 23:55:35,542 - INFO - 
2025-10-21 23:55:35,542 - INFO - Non-default parameters:
2025-10-21 23:55:35,542 - INFO - TimeLimit  3600
2025-10-21 23:55:35,542 - INFO - OptimalityTol  0.0001
2025-10-21 23:55:35,542 - INFO - StartNodeLimit  10000000
2025-10-21 23:55:35,542 - INFO - Threads  12
2025-10-21 23:55:35,543 - INFO - 
2025-10-21 23:55:35,543 - INFO - Optimize a model with 5603 rows, 3584 columns and 15200 nonzeros
2025-10-21 23:55:35,543 - INFO - Model fingerprint: 0xf6c5b94a
2025-10-21 23:55:35,543 - INFO - Variable types: 1024 continuous, 2560 integer (2560 binary)
2025-10-21 23:55:35,543 - INFO - Coefficient statistics:
2025-10-21 23:55:35,544 - INFO -   Matrix range     [1e+00, 6e+14]
2025-10-21 23:55:35,546 - INFO -   Objective range  [6e+04, 4e+05]
2025-10-21 23:55:35,546 - INFO -   Bounds range     [1e+00, 7e+15]
2025-10-21 23:55:35,546 - INFO -   RHS range        [1e+00, 7e+15]
2025-10-21 23:55:35,546 - INFO - Warning: Model contains large matrix coefficient range
2025-10-21 23:55:35,546 - INFO - Warning: Model contains large rhs
2025-10-21 23:55:35,547 - INFO - Warning: Model contains large bounds
2025-10-21 23:55:35,547 - INFO -          Consider reformulating model or setting NumericFocus parameter
2025-10-21 23:55:35,547 - INFO -          to avoid numerical issues.
2025-10-21 23:55:35,573 - INFO - Presolve removed 4305 rows and 1986 columns
2025-10-21 23:55:35,573 - INFO - Presolve time: 0.02s
2025-10-21 23:55:35,573 - INFO - Presolved: 1298 rows, 1598 columns, 4470 nonzeros
2025-10-21 23:55:35,576 - INFO - Variable types: 0 continuous, 1598 integer (1095 binary)
2025-10-21 23:55:35,582 - INFO - Found heuristic solution: objective 9988281.0000
2025-10-21 23:55:35,590 - INFO - Found heuristic solution: objective 9609501.0000
2025-10-21 23:55:35,598 - INFO - 
2025-10-21 23:55:35,598 - INFO - Root relaxation: objective 6.406334e+06, 419 iterations, 0.00 seconds (0.00 work units)
2025-10-21 23:55:35,627 - INFO - 
2025-10-21 23:55:35,627 - INFO -     Nodes    |    Current Node    |     Objective Bounds      |     Work
2025-10-21 23:55:35,627 - INFO -  Expl Unexpl |  Obj  Depth IntInf | Incumbent    BestBd   Gap | It/Node Time
2025-10-21 23:55:35,627 - INFO - 
2025-10-21 23:55:35,627 - INFO -      0     0 6406334.00    0    7 9609501.00 6406334.00  33.3%     -    0s
2025-10-21 23:55:35,636 - INFO - H    0     0                    8962512.0000 6406334.00  28.5%     -    0s
2025-10-21 23:55:35,645 - INFO - H    0     0                    6406334.0000 6406334.00  0.00%     -    0s
2025-10-21 23:55:35,645 - INFO -      0     0 6406334.00    0    7 6406334.00 6406334.00  0.00%     -    0s
2025-10-21 23:55:35,646 - INFO - 
2025-10-21 23:55:35,646 - INFO - Explored 1 nodes (419 simplex iterations) in 0.10 seconds (0.03 work units)
2025-10-21 23:55:35,646 - INFO - Thread count was 12 (of 96 available processors)
2025-10-21 23:55:35,646 - INFO - 
2025-10-21 23:55:35,646 - INFO - Solution count 4: 6.40633e+06 8.96251e+06 9.6095e+06 9.98828e+06 
2025-10-21 23:55:35,647 - INFO - 
2025-10-21 23:55:35,647 - INFO - Optimal solution found (tolerance 1.00e-04)
2025-10-21 23:55:35,647 - INFO - Best objective 6.406334000000e+06, best bound 6.406334000000e+06, gap 0.0000%
2025-10-21 23:55:35,670 - INFO - 规划前的显存GB：6.0
2025-10-21 23:55:35,671 - INFO - 规划后的显存GB：2.5380959510803223
2025-10-21 23:55:35,671 - INFO - ✅ 最优策略：[1, 1, 1, 1, 1, 1, 1, 1, 1, 1, 1, 1, 1, 1, 1, 1]
2025-10-21 23:55:35,671 - INFO - 📌 checkpoint 的欧氏长度:, []
2025-10-21 23:55:35,671 - INFO - 📌 checkpoint 的余弦长度:, []
2025-10-21 23:55:35,671 - INFO - 💾 最终显存峰值：%.2f MB % 2444.3057861328125
2025-10-21 23:55:35,688 - INFO - Epoch 2 completed in 25.593714 seconds
2025-10-21 23:55:35,689 - INFO - torch.cuda.max_memory_reserved() : 0.919921875
2025-10-21 23:55:55,578 - INFO - Epoch 3 completed in 19.887858 seconds
2025-10-21 23:55:55,578 - INFO - 
====================== [第1个 Epoch 收集统计数据] ======================
2025-10-21 23:55:55,578 - INFO - 
🔍 EUCLIDEAN modules:
2025-10-21 23:55:55,578 - INFO - [Shapelet   6] forward_avg=0.002591s over 92 calls | peak=121.01MB | final=0.00MB
2025-10-21 23:55:55,578 - INFO - [Shapelet  12] forward_avg=0.002779s over 92 calls | peak=164.59MB | final=0.00MB
2025-10-21 23:55:55,578 - INFO - [Shapelet  18] forward_avg=0.003144s over 92 calls | peak=202.52MB | final=0.00MB
2025-10-21 23:55:55,578 - INFO - [Shapelet  24] forward_avg=0.003626s over 92 calls | peak=233.25MB | final=0.00MB
2025-10-21 23:55:55,578 - INFO - [Shapelet  30] forward_avg=0.003416s over 92 calls | peak=247.82MB | final=0.00MB
2025-10-21 23:55:55,578 - INFO - [Shapelet  36] forward_avg=0.003717s over 92 calls | peak=247.36MB | final=0.00MB
2025-10-21 23:55:55,578 - INFO - [Shapelet  42] forward_avg=0.003651s over 92 calls | peak=232.68MB | final=0.00MB
2025-10-21 23:55:55,578 - INFO - [Shapelet  49] forward_avg=0.002547s over 92 calls | peak=202.64MB | final=0.00MB
2025-10-21 23:55:55,578 - INFO - 
🔍 COSINE modules:
2025-10-21 23:55:55,578 - INFO - [Shapelet   6] forward_avg=0.002980s over 92 calls | peak=81.68MB | final=0.00MB
2025-10-21 23:55:55,578 - INFO - [Shapelet  12] forward_avg=0.003049s over 92 calls | peak=100.70MB | final=0.00MB
2025-10-21 23:55:55,578 - INFO - [Shapelet  18] forward_avg=0.002964s over 92 calls | peak=117.07MB | final=0.00MB
2025-10-21 23:55:55,579 - INFO - [Shapelet  24] forward_avg=0.002777s over 92 calls | peak=134.74MB | final=0.00MB
2025-10-21 23:55:55,579 - INFO - [Shapelet  30] forward_avg=0.003061s over 92 calls | peak=141.93MB | final=0.00MB
2025-10-21 23:55:55,579 - INFO - [Shapelet  36] forward_avg=0.003249s over 92 calls | peak=139.35MB | final=0.00MB
2025-10-21 23:55:55,579 - INFO - [Shapelet  42] forward_avg=0.003192s over 92 calls | peak=125.51MB | final=0.00MB
2025-10-21 23:55:55,579 - INFO - [Shapelet  49] forward_avg=0.002710s over 92 calls | peak=106.17MB | final=0.00MB
2025-10-21 23:55:55,579 - INFO - 
🔍 CROSS modules:
2025-10-21 23:55:55,579 - INFO - [Shapelet   6] forward_avg=0.000710s over 92 calls
2025-10-21 23:55:55,579 - INFO - [Shapelet  12] forward_avg=0.000616s over 92 calls
2025-10-21 23:55:55,579 - INFO - [Shapelet  18] forward_avg=0.000661s over 92 calls
2025-10-21 23:55:55,579 - INFO - [Shapelet  24] forward_avg=0.000734s over 92 calls
2025-10-21 23:55:55,579 - INFO - [Shapelet  30] forward_avg=0.000823s over 92 calls
2025-10-21 23:55:55,579 - INFO - [Shapelet  36] forward_avg=0.000915s over 92 calls
2025-10-21 23:55:55,579 - INFO - [Shapelet  42] forward_avg=0.000987s over 92 calls
2025-10-21 23:55:55,579 - INFO - [Shapelet  49] forward_avg=0.001115s over 92 calls
2025-10-21 23:55:55,579 - INFO - 
💾 模型第一次反向传播阶段的显存峰值（所有模块中的最大值）: 2780.89 MB
2025-10-21 23:55:55,579 - INFO - 
💾 模型初始显存: 18.32 MB
2025-10-21 23:55:55,579 - INFO - =======================================================================

2025-10-21 23:55:55,580 - INFO - torch.cuda.max_memory_reserved() : 3.107421875
2025-10-21 23:56:15,090 - INFO - Epoch 4 completed in 19.510097 seconds
2025-10-21 23:56:15,091 - INFO - torch.cuda.max_memory_reserved() : 3.107421875
2025-10-21 23:56:34,693 - INFO - Epoch 5 completed in 19.601190 seconds
2025-10-21 23:56:34,694 - INFO - torch.cuda.max_memory_reserved() : 3.107421875
2025-10-21 23:56:54,094 - INFO - Epoch 6 completed in 19.398823 seconds
2025-10-21 23:56:54,094 - INFO - torch.cuda.max_memory_reserved() : 3.107421875
2025-10-21 23:57:13,381 - INFO - Epoch 7 completed in 19.286279 seconds
2025-10-21 23:57:13,382 - INFO - torch.cuda.max_memory_reserved() : 3.107421875
2025-10-21 23:57:33,114 - INFO - Epoch 8 completed in 19.731468 seconds
2025-10-21 23:57:33,115 - INFO - torch.cuda.max_memory_reserved() : 3.107421875
2025-10-21 23:57:52,505 - INFO - Epoch 9 completed in 19.389410 seconds
2025-10-21 23:57:52,505 - INFO - torch.cuda.max_memory_reserved() : 3.107421875
2025-10-21 23:58:12,391 - INFO - Epoch 10 completed in 19.885170 seconds
2025-10-22 00:03:07,102 - INFO - torch.cuda.max_memory_reserved() : 3.107421875
2025-10-22 00:03:07,103 - INFO - !!!采用策略后的几个epoch 平均时间:19.586286902427673
2025-10-22 00:03:07,103 - INFO - 



